
Gurobi 11.0.0 (mac64[arm]) logging started Fri Apr 19 16:16:02 2024

Set parameter LogFile to value "GurobiLogs/biomed_1.txt"
Set parameter TimeLimit to value 3600
Unknown variable 'd[0]' in MIP start 0 - ignored
Unknown variable 'a[Hospital_identification_number_for_blood_sample,0]' in MIP start 0 - ignored
Unknown variable 'a[Age_of_patient,0]' in MIP start 0 - ignored
Unknown variable 'a[Date_that_blood_sample_was_taken,0]' in MIP start 0 - ignored
Unknown variable 'a[ml,0]' in MIP start 0 - ignored
Unknown variable 'a[m2,0]' in MIP start 0 - ignored
Unknown variable 'a[m3,0]' in MIP start 0 - ignored
Unknown variable 'a[m4,0]' in MIP start 0 - ignored
Unknown variable 'a[Observation_number_1,0]' in MIP start 0 - ignored
Unknown variable 'a[Observation_number_2,0]' in MIP start 0 - ignored
Unknown variable 'a[Observation_number_3,0]' in MIP start 0 - ignored
Unknown variable 'a[Observation_number_4,0]' in MIP start 0 - ignored
Unknown variable 'a[Observation_number_5,0]' in MIP start 0 - ignored
Unknown variable 'a[Observation_number_6,0]' in MIP start 0 - ignored
Unknown variable 'z[99,1]' in MIP start 0 - ignored
Unknown variable 'z[99,2]' in MIP start 0 - ignored
Unknown variable 'z[132,1]' in MIP start 0 - ignored
Unknown variable 'z[132,2]' in MIP start 0 - ignored
Unknown variable 'z[174,1]' in MIP start 0 - ignored
Unknown variable 'z[174,2]' in MIP start 0 - ignored
Unknown variable 'z[199,1]' in MIP start 0 - ignored
Unknown variable 'z[199,2]' in MIP start 0 - ignored
Unknown variable 'z[12,1]' in MIP start 0 - ignored
Unknown variable 'z[12,2]' in MIP start 0 - ignored
Unknown variable 'z[182,1]' in MIP start 0 - ignored
Unknown variable 'z[182,2]' in MIP start 0 - ignored
Unknown variable 'z[107,1]' in MIP start 0 - ignored
Unknown variable 'z[107,2]' in MIP start 0 - ignored
Unknown variable 'z[167,1]' in MIP start 0 - ignored
Unknown variable 'z[167,2]' in MIP start 0 - ignored
Unknown variable 'z[162,1]' in MIP start 0 - ignored
Unknown variable 'z[162,2]' in MIP start 0 - ignored
Unknown variable 'z[147,1]' in MIP start 0 - ignored
Unknown variable 'z[147,2]' in MIP start 0 - ignored
Unknown variable 'z[81,1]' in MIP start 0 - ignored
Unknown variable 'z[81,2]' in MIP start 0 - ignored
Unknown variable 'z[166,1]' in MIP start 0 - ignored
Unknown variable 'z[166,2]' in MIP start 0 - ignored
Unknown variable 'z[138,1]' in MIP start 0 - ignored
Unknown variable 'z[138,2]' in MIP start 0 - ignored
Unknown variable 'z[13,1]' in MIP start 0 - ignored
Unknown variable 'z[13,2]' in MIP start 0 - ignored
Unknown variable 'z[185,1]' in MIP start 0 - ignored
Unknown variable 'z[185,2]' in MIP start 0 - ignored
Unknown variable 'z[82,1]' in MIP start 0 - ignored
Unknown variable 'z[82,2]' in MIP start 0 - ignored
Unknown variable 'z[207,1]' in MIP start 0 - ignored
Unknown variable 'z[207,2]' in MIP start 0 - ignored
Unknown variable 'z[186,1]' in MIP start 0 - ignored
Unknown variable 'z[186,2]' in MIP start 0 - ignored
Unknown variable 'z[45,1]' in MIP start 0 - ignored
Unknown variable 'z[45,2]' in MIP start 0 - ignored
Unknown variable 'z[175,1]' in MIP start 0 - ignored
Unknown variable 'z[175,2]' in MIP start 0 - ignored
Unknown variable 'z[103,1]' in MIP start 0 - ignored
Unknown variable 'z[103,2]' in MIP start 0 - ignored
Unknown variable 'z[36,1]' in MIP start 0 - ignored
Unknown variable 'z[36,2]' in MIP start 0 - ignored
Unknown variable 'z[169,1]' in MIP start 0 - ignored
Unknown variable 'z[169,2]' in MIP start 0 - ignored
Unknown variable 'z[194,1]' in MIP start 0 - ignored
Unknown variable 'z[194,2]' in MIP start 0 - ignored
Unknown variable 'z[161,1]' in MIP start 0 - ignored
Unknown variable 'z[161,2]' in MIP start 0 - ignored
Unknown variable 'z[117,1]' in MIP start 0 - ignored
Unknown variable 'z[117,2]' in MIP start 0 - ignored
Unknown variable 'z[114,1]' in MIP start 0 - ignored
Unknown variable 'z[114,2]' in MIP start 0 - ignored
Unknown variable 'z[206,1]' in MIP start 0 - ignored
Unknown variable 'z[206,2]' in MIP start 0 - ignored
Unknown variable 'z[123,1]' in MIP start 0 - ignored
Unknown variable 'z[123,2]' in MIP start 0 - ignored
Unknown variable 'z[181,1]' in MIP start 0 - ignored
Unknown variable 'z[181,2]' in MIP start 0 - ignored
Unknown variable 'z[75,1]' in MIP start 0 - ignored
Unknown variable 'z[75,2]' in MIP start 0 - ignored
Unknown variable 'z[21,1]' in MIP start 0 - ignored
Unknown variable 'z[21,2]' in MIP start 0 - ignored
Unknown variable 'z[91,1]' in MIP start 0 - ignored
Unknown variable 'z[91,2]' in MIP start 0 - ignored
Unknown variable 'z[160,1]' in MIP start 0 - ignored
Unknown variable 'z[160,2]' in MIP start 0 - ignored
Unknown variable 'z[2,1]' in MIP start 0 - ignored
Unknown variable 'z[2,2]' in MIP start 0 - ignored
Unknown variable 'z[70,1]' in MIP start 0 - ignored
Unknown variable 'z[70,2]' in MIP start 0 - ignored
Unknown variable 'z[85,1]' in MIP start 0 - ignored
Unknown variable 'z[85,2]' in MIP start 0 - ignored
Unknown variable 'z[158,1]' in MIP start 0 - ignored
Unknown variable 'z[158,2]' in MIP start 0 - ignored
Unknown variable 'z[6,1]' in MIP start 0 - ignored
Unknown variable 'z[6,2]' in MIP start 0 - ignored
Unknown variable 'z[127,1]' in MIP start 0 - ignored
Unknown variable 'z[127,2]' in MIP start 0 - ignored
Unknown variable 'z[120,1]' in MIP start 0 - ignored
Unknown variable 'z[120,2]' in MIP start 0 - ignored
Unknown variable 'z[0,1]' in MIP start 0 - ignored
Unknown variable 'z[0,2]' in MIP start 0 - ignored
Unknown variable 'z[163,1]' in MIP start 0 - ignored
Unknown variable 'z[163,2]' in MIP start 0 - ignored
Unknown variable 'z[77,1]' in MIP start 0 - ignored
Unknown variable 'z[77,2]' in MIP start 0 - ignored
Unknown variable 'z[113,1]' in MIP start 0 - ignored
Unknown variable 'z[113,2]' in MIP start 0 - ignored
Unknown variable 'z[65,1]' in MIP start 0 - ignored
Unknown variable 'z[65,2]' in MIP start 0 - ignored
Unknown variable 'z[46,1]' in MIP start 0 - ignored
Unknown variable 'z[46,2]' in MIP start 0 - ignored
Unknown variable 'z[74,1]' in MIP start 0 - ignored
Unknown variable 'z[74,2]' in MIP start 0 - ignored
Unknown variable 'z[92,1]' in MIP start 0 - ignored
Unknown variable 'z[92,2]' in MIP start 0 - ignored
Unknown variable 'z[151,1]' in MIP start 0 - ignored
Unknown variable 'z[151,2]' in MIP start 0 - ignored
Unknown variable 'z[87,1]' in MIP start 0 - ignored
Unknown variable 'z[87,2]' in MIP start 0 - ignored
Unknown variable 'z[143,1]' in MIP start 0 - ignored
Unknown variable 'z[143,2]' in MIP start 0 - ignored
Unknown variable 'z[10,1]' in MIP start 0 - ignored
Unknown variable 'z[10,2]' in MIP start 0 - ignored
Unknown variable 'z[32,1]' in MIP start 0 - ignored
Unknown variable 'z[32,2]' in MIP start 0 - ignored
Unknown variable 'z[136,1]' in MIP start 0 - ignored
Unknown variable 'z[136,2]' in MIP start 0 - ignored
Unknown variable 'z[83,1]' in MIP start 0 - ignored
Unknown variable 'z[83,2]' in MIP start 0 - ignored
Unknown variable 'z[164,1]' in MIP start 0 - ignored
Unknown variable 'z[164,2]' in MIP start 0 - ignored
Unknown variable 'z[100,1]' in MIP start 0 - ignored
Unknown variable 'z[100,2]' in MIP start 0 - ignored
Unknown variable 'z[125,1]' in MIP start 0 - ignored
Unknown variable 'z[125,2]' in MIP start 0 - ignored
Unknown variable 'z[23,1]' in MIP start 0 - ignored
Unknown variable 'z[23,2]' in MIP start 0 - ignored
Unknown variable 'z[126,1]' in MIP start 0 - ignored
Unknown variable 'z[126,2]' in MIP start 0 - ignored
Unknown variable 'z[9,1]' in MIP start 0 - ignored
Unknown variable 'z[9,2]' in MIP start 0 - ignored
Unknown variable 'z[195,1]' in MIP start 0 - ignored
Unknown variable 'z[195,2]' in MIP start 0 - ignored
Unknown variable 'z[104,1]' in MIP start 0 - ignored
Unknown variable 'z[104,2]' in MIP start 0 - ignored
Unknown variable 'z[159,1]' in MIP start 0 - ignored
Unknown variable 'z[159,2]' in MIP start 0 - ignored
Unknown variable 'z[135,1]' in MIP start 0 - ignored
Unknown variable 'z[135,2]' in MIP start 0 - ignored
Unknown variable 'z[111,1]' in MIP start 0 - ignored
Unknown variable 'z[111,2]' in MIP start 0 - ignored
Unknown variable 'z[196,1]' in MIP start 0 - ignored
Unknown variable 'z[196,2]' in MIP start 0 - ignored
Unknown variable 'z[64,1]' in MIP start 0 - ignored
Unknown variable 'z[64,2]' in MIP start 0 - ignored
Unknown variable 'z[15,1]' in MIP start 0 - ignored
Unknown variable 'z[15,2]' in MIP start 0 - ignored
Unknown variable 'z[41,1]' in MIP start 0 - ignored
Unknown variable 'z[41,2]' in MIP start 0 - ignored
Unknown variable 'z[171,1]' in MIP start 0 - ignored
Unknown variable 'z[171,2]' in MIP start 0 - ignored
Unknown variable 'z[109,1]' in MIP start 0 - ignored
Unknown variable 'z[109,2]' in MIP start 0 - ignored
Unknown variable 'z[80,1]' in MIP start 0 - ignored
Unknown variable 'z[80,2]' in MIP start 0 - ignored
Unknown variable 'z[52,1]' in MIP start 0 - ignored
Unknown variable 'z[52,2]' in MIP start 0 - ignored
Unknown variable 'z[26,1]' in MIP start 0 - ignored
Unknown variable 'z[26,2]' in MIP start 0 - ignored
Unknown variable 'z[76,1]' in MIP start 0 - ignored
Unknown variable 'z[76,2]' in MIP start 0 - ignored
Unknown variable 'z[43,1]' in MIP start 0 - ignored
Unknown variable 'z[43,2]' in MIP start 0 - ignored
Unknown variable 'z[24,1]' in MIP start 0 - ignored
Unknown variable 'z[24,2]' in MIP start 0 - ignored
Unknown variable 'z[3,1]' in MIP start 0 - ignored
Unknown variable 'z[3,2]' in MIP start 0 - ignored
Unknown variable 'z[177,1]' in MIP start 0 - ignored
Unknown variable 'z[177,2]' in MIP start 0 - ignored
Unknown variable 'z[49,1]' in MIP start 0 - ignored
Unknown variable 'z[49,2]' in MIP start 0 - ignored
Unknown variable 'z[149,1]' in MIP start 0 - ignored
Unknown variable 'z[149,2]' in MIP start 0 - ignored
Unknown variable 'z[131,1]' in MIP start 0 - ignored
Unknown variable 'z[131,2]' in MIP start 0 - ignored
Unknown variable 'z[198,1]' in MIP start 0 - ignored
Unknown variable 'z[198,2]' in MIP start 0 - ignored
Unknown variable 'z[30,1]' in MIP start 0 - ignored
Unknown variable 'z[30,2]' in MIP start 0 - ignored
Unknown variable 'z[121,1]' in MIP start 0 - ignored
Unknown variable 'z[121,2]' in MIP start 0 - ignored
Unknown variable 'z[115,1]' in MIP start 0 - ignored
Unknown variable 'z[115,2]' in MIP start 0 - ignored
Unknown variable 'z[183,1]' in MIP start 0 - ignored
Unknown variable 'z[183,2]' in MIP start 0 - ignored
Unknown variable 'z[8,1]' in MIP start 0 - ignored
Unknown variable 'z[8,2]' in MIP start 0 - ignored
Unknown variable 'z[60,1]' in MIP start 0 - ignored
Unknown variable 'z[60,2]' in MIP start 0 - ignored
Unknown variable 'z[128,1]' in MIP start 0 - ignored
Unknown variable 'z[128,2]' in MIP start 0 - ignored
Unknown variable 'z[1,1]' in MIP start 0 - ignored
Unknown variable 'z[1,2]' in MIP start 0 - ignored
Unknown variable 'z[57,1]' in MIP start 0 - ignored
Unknown variable 'z[57,2]' in MIP start 0 - ignored
Unknown variable 'z[22,1]' in MIP start 0 - ignored
Unknown variable 'z[22,2]' in MIP start 0 - ignored
Unknown variable 'z[61,1]' in MIP start 0 - ignored
Unknown variable 'z[61,2]' in MIP start 0 - ignored
Unknown variable 'z[63,1]' in MIP start 0 - ignored
Unknown variable 'z[63,2]' in MIP start 0 - ignored
Unknown variable 'z[7,1]' in MIP start 0 - ignored
Unknown variable 'z[7,2]' in MIP start 0 - ignored
Unknown variable 'z[205,1]' in MIP start 0 - ignored
Unknown variable 'z[205,2]' in MIP start 0 - ignored
Unknown variable 'z[141,1]' in MIP start 0 - ignored
Unknown variable 'z[141,2]' in MIP start 0 - ignored
Unknown variable 'z[86,1]' in MIP start 0 - ignored
Unknown variable 'z[86,2]' in MIP start 0 - ignored
Unknown variable 'z[96,1]' in MIP start 0 - ignored
Unknown variable 'z[96,2]' in MIP start 0 - ignored
Unknown variable 'z[68,1]' in MIP start 0 - ignored
Unknown variable 'z[68,2]' in MIP start 0 - ignored
Unknown variable 'z[50,1]' in MIP start 0 - ignored
Unknown variable 'z[50,2]' in MIP start 0 - ignored
Unknown variable 'z[142,1]' in MIP start 0 - ignored
Unknown variable 'z[142,2]' in MIP start 0 - ignored
Unknown variable 'z[157,1]' in MIP start 0 - ignored
Unknown variable 'z[157,2]' in MIP start 0 - ignored
Unknown variable 'z[156,1]' in MIP start 0 - ignored
Unknown variable 'z[156,2]' in MIP start 0 - ignored
Unknown variable 'z[139,1]' in MIP start 0 - ignored
Unknown variable 'z[139,2]' in MIP start 0 - ignored
Unknown variable 'z[146,1]' in MIP start 0 - ignored
Unknown variable 'z[146,2]' in MIP start 0 - ignored
Unknown variable 'z[101,1]' in MIP start 0 - ignored
Unknown variable 'z[101,2]' in MIP start 0 - ignored
Unknown variable 'z[20,1]' in MIP start 0 - ignored
Unknown variable 'z[20,2]' in MIP start 0 - ignored
Unknown variable 'z[178,1]' in MIP start 0 - ignored
Unknown variable 'z[178,2]' in MIP start 0 - ignored
Unknown variable 'z[25,1]' in MIP start 0 - ignored
Unknown variable 'z[25,2]' in MIP start 0 - ignored
Unknown variable 'z[134,1]' in MIP start 0 - ignored
Unknown variable 'z[134,2]' in MIP start 0 - ignored
Unknown variable 'z[71,1]' in MIP start 0 - ignored
Unknown variable 'z[71,2]' in MIP start 0 - ignored
Unknown variable 'z[129,1]' in MIP start 0 - ignored
Unknown variable 'z[129,2]' in MIP start 0 - ignored
Unknown variable 'z[144,1]' in MIP start 0 - ignored
Unknown variable 'z[144,2]' in MIP start 0 - ignored
Unknown variable 'z[192,1]' in MIP start 0 - ignored
Unknown variable 'z[192,2]' in MIP start 0 - ignored
Unknown variable 'z[79,1]' in MIP start 0 - ignored
Unknown variable 'z[79,2]' in MIP start 0 - ignored
Unknown variable 'z[133,1]' in MIP start 0 - ignored
Unknown variable 'z[133,2]' in MIP start 0 - ignored
Unknown variable 'z[203,1]' in MIP start 0 - ignored
Unknown variable 'z[203,2]' in MIP start 0 - ignored
Unknown variable 'z[137,1]' in MIP start 0 - ignored
Unknown variable 'z[137,2]' in MIP start 0 - ignored
Unknown variable 'z[72,1]' in MIP start 0 - ignored
Unknown variable 'z[72,2]' in MIP start 0 - ignored
Unknown variable 'z[140,1]' in MIP start 0 - ignored
Unknown variable 'z[140,2]' in MIP start 0 - ignored
Unknown variable 'z[37,1]' in MIP start 0 - ignored
Unknown variable 'z[37,2]' in MIP start 0 - ignored
Unknown variable 'l[1]' in MIP start 0 - ignored
Unknown variable 'l[2]' in MIP start 0 - ignored
Unknown variable 'Beta[Hospital_identification_number_for_blood_sample,1]' in MIP start 0 - ignored
Unknown variable 'Beta[Hospital_identification_number_for_blood_sample,2]' in MIP start 0 - ignored
Unknown variable 'Beta[Age_of_patient,1]' in MIP start 0 - ignored
Unknown variable 'Beta[Age_of_patient,2]' in MIP start 0 - ignored
Unknown variable 'Beta[Date_that_blood_sample_was_taken,1]' in MIP start 0 - ignored
Unknown variable 'Beta[Date_that_blood_sample_was_taken,2]' in MIP start 0 - ignored
Unknown variable 'Beta[ml,1]' in MIP start 0 - ignored
Unknown variable 'Beta[ml,2]' in MIP start 0 - ignored
Unknown variable 'Beta[m2,1]' in MIP start 0 - ignored
Unknown variable 'Beta[m2,2]' in MIP start 0 - ignored
Unknown variable 'Beta[m3,1]' in MIP start 0 - ignored
Unknown variable 'Beta[m3,2]' in MIP start 0 - ignored
Unknown variable 'Beta[m4,1]' in MIP start 0 - ignored
Unknown variable 'Beta[m4,2]' in MIP start 0 - ignored
Unknown variable 'Beta[Observation_number_1,1]' in MIP start 0 - ignored
Unknown variable 'Beta[Observation_number_1,2]' in MIP start 0 - ignored
Unknown variable 'Beta[Observation_number_2,1]' in MIP start 0 - ignored
Unknown variable 'Beta[Observation_number_2,2]' in MIP start 0 - ignored
Unknown variable 'Beta[Observation_number_3,1]' in MIP start 0 - ignored
Unknown variable 'Beta[Observation_number_3,2]' in MIP start 0 - ignored
Unknown variable 'Beta[Observation_number_4,1]' in MIP start 0 - ignored
Unknown variable 'Beta[Observation_number_4,2]' in MIP start 0 - ignored
Unknown variable 'Beta[Observation_number_5,1]' in MIP start 0 - ignored
Unknown variable 'Beta[Observation_number_5,2]' in MIP start 0 - ignored
Unknown variable 'Beta[Observation_number_6,1]' in MIP start 0 - ignored
Unknown variable 'Beta[Observation_number_6,2]' in MIP start 0 - ignored
Unknown variable 'Beta_abs[Hospital_identification_number_for_blood_sample,1]' in MIP start 0 - ignored
Unknown variable 'Beta_abs[Hospital_identification_number_for_blood_sample,2]' in MIP start 0 - ignored
Unknown variable 'Beta_abs[Age_of_patient,1]' in MIP start 0 - ignored
Unknown variable 'Beta_abs[Age_of_patient,2]' in MIP start 0 - ignored
Unknown variable 'Beta_abs[Date_that_blood_sample_was_taken,1]' in MIP start 0 - ignored
Unknown variable 'Beta_abs[Date_that_blood_sample_was_taken,2]' in MIP start 0 - ignored
Unknown variable 'Beta_abs[ml,1]' in MIP start 0 - ignored
Unknown variable 'Beta_abs[ml,2]' in MIP start 0 - ignored
Unknown variable 'Beta_abs[m2,1]' in MIP start 0 - ignored
Unknown variable 'Beta_abs[m2,2]' in MIP start 0 - ignored
Unknown variable 'Beta_abs[m3,1]' in MIP start 0 - ignored
Unknown variable 'Beta_abs[m3,2]' in MIP start 0 - ignored
Unknown variable 'Beta_abs[m4,1]' in MIP start 0 - ignored
Unknown variable 'Beta_abs[m4,2]' in MIP start 0 - ignored
Unknown variable 'Beta_abs[Observation_number_1,1]' in MIP start 0 - ignored
Unknown variable 'Beta_abs[Observation_number_1,2]' in MIP start 0 - ignored
Unknown variable 'Beta_abs[Observation_number_2,1]' in MIP start 0 - ignored
Unknown variable 'Beta_abs[Observation_number_2,2]' in MIP start 0 - ignored
Unknown variable 'Beta_abs[Observation_number_3,1]' in MIP start 0 - ignored
Unknown variable 'Beta_abs[Observation_number_3,2]' in MIP start 0 - ignored
Unknown variable 'Beta_abs[Observation_number_4,1]' in MIP start 0 - ignored
Unknown variable 'Beta_abs[Observation_number_4,2]' in MIP start 0 - ignored
Unknown variable 'Beta_abs[Observation_number_5,1]' in MIP start 0 - ignored
Unknown variable 'Beta_abs[Observation_number_5,2]' in MIP start 0 - ignored
Unknown variable 'Beta_abs[Observation_number_6,1]' in MIP start 0 - ignored
Unknown variable 'Beta_abs[Observation_number_6,2]' in MIP start 0 - ignored
Read MIP start from file WarmStarts/biomed_1.mst
Gurobi Optimizer version 11.0.0 build v11.0.0rc2 (mac64[arm] - Darwin 23.4.0 23E224)

CPU model: Apple M3 Pro
Thread count: 11 physical cores, 11 logical processors, using up to 11 threads

Optimize a model with 260 rows, 132 columns and 773 nonzeros
Model fingerprint: 0xcc9fc999
Variable types: 0 continuous, 132 integer (128 binary)
Coefficient statistics:
  Matrix range     [1e+00, 1e+02]
  Objective range  [1e+00, 1e+00]
  Bounds range     [1e+00, 1e+00]
  RHS range        [1e+00, 1e+02]

No start values specified in MIP start

Found heuristic solution: objective 41.0000000
Presolve removed 260 rows and 132 columns
Presolve time: 0.00s
Presolve: All rows and columns removed

Explored 0 nodes (0 simplex iterations) in 0.00 seconds (0.00 work units)
Thread count was 1 (of 11 available processors)

Solution count 1: 41 

Optimal solution found (tolerance 1.00e-04)
Best objective 4.100000000000e+01, best bound 4.100000000000e+01, gap 0.0000%

Gurobi 11.0.0 (mac64[arm]) logging started Fri Apr 19 16:16:02 2024

Set parameter LogFile to value "GurobiLogs/biomed_1.txt"
Set parameter TimeLimit to value 3600
Read MIP start from file WarmStarts/biomed_1.mst
Gurobi Optimizer version 11.0.0 build v11.0.0rc2 (mac64[arm] - Darwin 23.4.0 23E224)

CPU model: Apple M3 Pro
Thread count: 11 physical cores, 11 logical processors, using up to 11 threads

Optimize a model with 260 rows, 132 columns and 773 nonzeros
Model fingerprint: 0x8bd38a39
Variable types: 0 continuous, 132 integer (128 binary)
Coefficient statistics:
  Matrix range     [1e+00, 1e+02]
  Objective range  [1e+00, 1e+00]
  Bounds range     [1e+00, 1e+00]
  RHS range        [1e+00, 1e+02]

Loaded user MIP start with objective 41

Presolve removed 260 rows and 132 columns
Presolve time: 0.00s
Presolve: All rows and columns removed

Explored 0 nodes (0 simplex iterations) in 0.00 seconds (0.00 work units)
Thread count was 1 (of 11 available processors)

Solution count 1: 41 

Optimal solution found (tolerance 1.00e-04)
Best objective 4.100000000000e+01, best bound 4.100000000000e+01, gap 0.0000%

Gurobi 11.0.0 (mac64[arm]) logging started Fri Apr 19 16:16:02 2024

Set parameter LogFile to value "GurobiLogs/biomed_1.txt"
Set parameter TimeLimit to value 3600
Read MIP start from file WarmStarts/biomed_1.mst
Gurobi Optimizer version 11.0.0 build v11.0.0rc2 (mac64[arm] - Darwin 23.4.0 23E224)

CPU model: Apple M3 Pro
Thread count: 11 physical cores, 11 logical processors, using up to 11 threads

Optimize a model with 260 rows, 132 columns and 773 nonzeros
Model fingerprint: 0x8bd38a39
Variable types: 0 continuous, 132 integer (128 binary)
Coefficient statistics:
  Matrix range     [1e+00, 1e+02]
  Objective range  [1e+00, 1e+00]
  Bounds range     [1e+00, 1e+00]
  RHS range        [1e+00, 1e+02]

Loaded user MIP start with objective 41

Presolve removed 260 rows and 132 columns
Presolve time: 0.00s
Presolve: All rows and columns removed

Explored 0 nodes (0 simplex iterations) in 0.00 seconds (0.00 work units)
Thread count was 1 (of 11 available processors)

Solution count 1: 41 

Optimal solution found (tolerance 1.00e-04)
Best objective 4.100000000000e+01, best bound 4.100000000000e+01, gap 0.0000%

Gurobi 11.0.0 (mac64[arm]) logging started Fri Apr 19 16:16:02 2024

Set parameter LogFile to value "GurobiLogs/biomed_1.txt"
Set parameter TimeLimit to value 3600
Read MIP start from file WarmStarts/biomed_1.mst
Gurobi Optimizer version 11.0.0 build v11.0.0rc2 (mac64[arm] - Darwin 23.4.0 23E224)

CPU model: Apple M3 Pro
Thread count: 11 physical cores, 11 logical processors, using up to 11 threads

Optimize a model with 260 rows, 132 columns and 773 nonzeros
Model fingerprint: 0x8bd38a39
Variable types: 0 continuous, 132 integer (128 binary)
Coefficient statistics:
  Matrix range     [1e+00, 1e+02]
  Objective range  [1e+00, 1e+00]
  Bounds range     [1e+00, 1e+00]
  RHS range        [1e+00, 1e+02]

Loaded user MIP start with objective 41

Presolve removed 260 rows and 132 columns
Presolve time: 0.00s
Presolve: All rows and columns removed

Explored 0 nodes (0 simplex iterations) in 0.00 seconds (0.00 work units)
Thread count was 1 (of 11 available processors)

Solution count 1: 41 

Optimal solution found (tolerance 1.00e-04)
Best objective 4.100000000000e+01, best bound 4.100000000000e+01, gap 0.0000%

Gurobi 11.0.0 (mac64[arm]) logging started Fri Apr 19 16:16:02 2024

Set parameter LogFile to value "GurobiLogs/biomed_1.txt"
Set parameter TimeLimit to value 3600
Unknown variable 'z[99,0]' in MIP start 0 - ignored
Unknown variable 'z[132,0]' in MIP start 0 - ignored
Unknown variable 'z[174,0]' in MIP start 0 - ignored
Unknown variable 'z[199,0]' in MIP start 0 - ignored
Unknown variable 'z[12,0]' in MIP start 0 - ignored
Unknown variable 'z[182,0]' in MIP start 0 - ignored
Unknown variable 'z[107,0]' in MIP start 0 - ignored
Unknown variable 'z[167,0]' in MIP start 0 - ignored
Unknown variable 'z[162,0]' in MIP start 0 - ignored
Unknown variable 'z[147,0]' in MIP start 0 - ignored
Unknown variable 'z[81,0]' in MIP start 0 - ignored
Unknown variable 'z[166,0]' in MIP start 0 - ignored
Unknown variable 'z[138,0]' in MIP start 0 - ignored
Unknown variable 'z[13,0]' in MIP start 0 - ignored
Unknown variable 'z[185,0]' in MIP start 0 - ignored
Unknown variable 'z[82,0]' in MIP start 0 - ignored
Unknown variable 'z[207,0]' in MIP start 0 - ignored
Unknown variable 'z[186,0]' in MIP start 0 - ignored
Unknown variable 'z[45,0]' in MIP start 0 - ignored
Unknown variable 'z[175,0]' in MIP start 0 - ignored
Unknown variable 'z[103,0]' in MIP start 0 - ignored
Unknown variable 'z[36,0]' in MIP start 0 - ignored
Unknown variable 'z[169,0]' in MIP start 0 - ignored
Unknown variable 'z[194,0]' in MIP start 0 - ignored
Unknown variable 'z[161,0]' in MIP start 0 - ignored
Unknown variable 'z[117,0]' in MIP start 0 - ignored
Unknown variable 'z[114,0]' in MIP start 0 - ignored
Unknown variable 'z[206,0]' in MIP start 0 - ignored
Unknown variable 'z[123,0]' in MIP start 0 - ignored
Unknown variable 'z[181,0]' in MIP start 0 - ignored
Unknown variable 'z[75,0]' in MIP start 0 - ignored
Unknown variable 'z[21,0]' in MIP start 0 - ignored
Unknown variable 'z[91,0]' in MIP start 0 - ignored
Unknown variable 'z[160,0]' in MIP start 0 - ignored
Unknown variable 'z[2,0]' in MIP start 0 - ignored
Unknown variable 'z[70,0]' in MIP start 0 - ignored
Unknown variable 'z[85,0]' in MIP start 0 - ignored
Unknown variable 'z[158,0]' in MIP start 0 - ignored
Unknown variable 'z[6,0]' in MIP start 0 - ignored
Unknown variable 'z[127,0]' in MIP start 0 - ignored
Unknown variable 'z[120,0]' in MIP start 0 - ignored
Unknown variable 'z[0,0]' in MIP start 0 - ignored
Unknown variable 'z[163,0]' in MIP start 0 - ignored
Unknown variable 'z[77,0]' in MIP start 0 - ignored
Unknown variable 'z[113,0]' in MIP start 0 - ignored
Unknown variable 'z[65,0]' in MIP start 0 - ignored
Unknown variable 'z[46,0]' in MIP start 0 - ignored
Unknown variable 'z[74,0]' in MIP start 0 - ignored
Unknown variable 'z[92,0]' in MIP start 0 - ignored
Unknown variable 'z[151,0]' in MIP start 0 - ignored
Unknown variable 'z[87,0]' in MIP start 0 - ignored
Unknown variable 'z[143,0]' in MIP start 0 - ignored
Unknown variable 'z[10,0]' in MIP start 0 - ignored
Unknown variable 'z[32,0]' in MIP start 0 - ignored
Unknown variable 'z[136,0]' in MIP start 0 - ignored
Unknown variable 'z[83,0]' in MIP start 0 - ignored
Unknown variable 'z[164,0]' in MIP start 0 - ignored
Unknown variable 'z[100,0]' in MIP start 0 - ignored
Unknown variable 'z[125,0]' in MIP start 0 - ignored
Unknown variable 'z[23,0]' in MIP start 0 - ignored
Unknown variable 'z[126,0]' in MIP start 0 - ignored
Unknown variable 'z[9,0]' in MIP start 0 - ignored
Unknown variable 'z[195,0]' in MIP start 0 - ignored
Unknown variable 'z[104,0]' in MIP start 0 - ignored
Unknown variable 'z[159,0]' in MIP start 0 - ignored
Unknown variable 'z[135,0]' in MIP start 0 - ignored
Unknown variable 'z[111,0]' in MIP start 0 - ignored
Unknown variable 'z[196,0]' in MIP start 0 - ignored
Unknown variable 'z[64,0]' in MIP start 0 - ignored
Unknown variable 'z[15,0]' in MIP start 0 - ignored
Unknown variable 'z[41,0]' in MIP start 0 - ignored
Unknown variable 'z[171,0]' in MIP start 0 - ignored
Unknown variable 'z[109,0]' in MIP start 0 - ignored
Unknown variable 'z[80,0]' in MIP start 0 - ignored
Unknown variable 'z[52,0]' in MIP start 0 - ignored
Unknown variable 'z[26,0]' in MIP start 0 - ignored
Unknown variable 'z[76,0]' in MIP start 0 - ignored
Unknown variable 'z[43,0]' in MIP start 0 - ignored
Unknown variable 'z[24,0]' in MIP start 0 - ignored
Unknown variable 'z[3,0]' in MIP start 0 - ignored
Unknown variable 'z[177,0]' in MIP start 0 - ignored
Unknown variable 'z[49,0]' in MIP start 0 - ignored
Unknown variable 'z[149,0]' in MIP start 0 - ignored
Unknown variable 'z[131,0]' in MIP start 0 - ignored
Unknown variable 'z[198,0]' in MIP start 0 - ignored
Unknown variable 'z[30,0]' in MIP start 0 - ignored
Unknown variable 'z[121,0]' in MIP start 0 - ignored
Unknown variable 'z[115,0]' in MIP start 0 - ignored
Unknown variable 'z[183,0]' in MIP start 0 - ignored
Unknown variable 'z[8,0]' in MIP start 0 - ignored
Unknown variable 'z[60,0]' in MIP start 0 - ignored
Unknown variable 'z[128,0]' in MIP start 0 - ignored
Unknown variable 'z[1,0]' in MIP start 0 - ignored
Unknown variable 'z[57,0]' in MIP start 0 - ignored
Unknown variable 'z[22,0]' in MIP start 0 - ignored
Unknown variable 'z[61,0]' in MIP start 0 - ignored
Unknown variable 'z[63,0]' in MIP start 0 - ignored
Unknown variable 'z[7,0]' in MIP start 0 - ignored
Unknown variable 'z[205,0]' in MIP start 0 - ignored
Unknown variable 'z[141,0]' in MIP start 0 - ignored
Unknown variable 'z[86,0]' in MIP start 0 - ignored
Unknown variable 'z[96,0]' in MIP start 0 - ignored
Unknown variable 'z[68,0]' in MIP start 0 - ignored
Unknown variable 'z[50,0]' in MIP start 0 - ignored
Unknown variable 'z[142,0]' in MIP start 0 - ignored
Unknown variable 'z[157,0]' in MIP start 0 - ignored
Unknown variable 'z[156,0]' in MIP start 0 - ignored
Unknown variable 'z[139,0]' in MIP start 0 - ignored
Unknown variable 'z[146,0]' in MIP start 0 - ignored
Unknown variable 'z[101,0]' in MIP start 0 - ignored
Unknown variable 'z[20,0]' in MIP start 0 - ignored
Unknown variable 'z[178,0]' in MIP start 0 - ignored
Unknown variable 'z[25,0]' in MIP start 0 - ignored
Unknown variable 'z[134,0]' in MIP start 0 - ignored
Unknown variable 'z[71,0]' in MIP start 0 - ignored
Unknown variable 'z[129,0]' in MIP start 0 - ignored
Unknown variable 'z[144,0]' in MIP start 0 - ignored
Unknown variable 'z[192,0]' in MIP start 0 - ignored
Unknown variable 'z[79,0]' in MIP start 0 - ignored
Unknown variable 'z[133,0]' in MIP start 0 - ignored
Unknown variable 'z[203,0]' in MIP start 0 - ignored
Unknown variable 'z[137,0]' in MIP start 0 - ignored
Unknown variable 'z[72,0]' in MIP start 0 - ignored
Unknown variable 'z[140,0]' in MIP start 0 - ignored
Unknown variable 'z[37,0]' in MIP start 0 - ignored
Unknown variable 'l[0]' in MIP start 0 - ignored
Unknown variable 'c[1.0,0]' in MIP start 0 - ignored
Unknown variable 'c[-1.0,0]' in MIP start 0 - ignored
Unknown variable 'n_k[1.0,0]' in MIP start 0 - ignored
Unknown variable 'n_k[-1.0,0]' in MIP start 0 - ignored
Unknown variable 'N[0]' in MIP start 0 - ignored
Unknown variable 'L[0]' in MIP start 0 - ignored
Read MIP start from file WarmStarts/biomed_1.mst
Warning for adding constraints: zero or small (< 1e-13) coefficients, ignored
Gurobi Optimizer version 11.0.0 build v11.0.0rc2 (mac64[arm] - Darwin 23.4.0 23E224)

CPU model: Apple M3 Pro
Thread count: 11 physical cores, 11 logical processors, using up to 11 threads

Optimize a model with 649 rows, 279 columns and 5309 nonzeros
Model fingerprint: 0x016f296e
Variable types: 1 continuous, 278 integer (270 binary)
Coefficient statistics:
  Matrix range     [3e-05, 2e+02]
  Objective range  [1e+00, 1e+00]
  Bounds range     [1e+00, 1e+00]
  RHS range        [1e+00, 2e+02]

No start values specified in MIP start

Presolve removed 258 rows and 131 columns
Presolve time: 0.01s
Presolved: 391 rows, 148 columns, 4175 nonzeros
Variable types: 1 continuous, 147 integer (142 binary)
Found heuristic solution: objective 41.0000000

Root relaxation: objective 0.000000e+00, 10 iterations, 0.00 seconds (0.00 work units)

    Nodes    |    Current Node    |     Objective Bounds      |     Work
 Expl Unexpl |  Obj  Depth IntInf | Incumbent    BestBd   Gap | It/Node Time

     0     0    0.00000    0    7   41.00000    0.00000   100%     -    0s
Another try with MIP start
     0     0    0.00000    0   60   41.00000    0.00000   100%     -    0s
H    0     0                      26.0000000    0.08882   100%     -    0s
     0     0    0.08882    0    2   26.00000    0.08882   100%     -    0s
H    0     0                      25.0000000    0.08882   100%     -    0s
H    0     0                      17.0000000    0.08882  99.5%     -    0s
     0     0    1.07812    0    8   17.00000    1.07812  93.7%     -    0s
H    0     0                      13.0000000    2.00000  84.6%     -    0s
     0     0    2.08249    0   18   13.00000    2.08249  84.0%     -    0s
     0     0    3.01146    0   36   13.00000    3.01146  76.8%     -    0s
H    0     0                      12.0000000    4.00000  66.7%     -    0s
     0     0    4.00000    0   10   12.00000    4.00000  66.7%     -    0s
     0     0    4.22977    0   42   12.00000    4.22977  64.8%     -    0s
     0     0    5.44303    0   11   12.00000    5.44303  54.6%     -    0s
     0     0    5.59623    0    8   12.00000    5.59623  53.4%     -    0s
     0     2    5.59623    0    8   12.00000    5.59623  53.4%     -    0s

Cutting planes:
  Cover: 160
  MIR: 48
  GUB cover: 37
  Inf proof: 4
  Zero half: 1
  RLT: 12
  Relax-and-lift: 2

Explored 1284 nodes (24669 simplex iterations) in 0.65 seconds (0.41 work units)
Thread count was 11 (of 11 available processors)

Solution count 6: 12 13 17 ... 41

Optimal solution found (tolerance 1.00e-04)
Best objective 1.200000000000e+01, best bound 1.200000000000e+01, gap 0.0000%

Gurobi 11.0.0 (mac64[arm]) logging started Fri Apr 19 16:16:03 2024

Set parameter LogFile to value "GurobiLogs/biomed_1.txt"
Set parameter TimeLimit to value 3600
Read MIP start from file WarmStarts/biomed_1.mst
Warning for adding constraints: zero or small (< 1e-13) coefficients, ignored
Gurobi Optimizer version 11.0.0 build v11.0.0rc2 (mac64[arm] - Darwin 23.4.0 23E224)

CPU model: Apple M3 Pro
Thread count: 11 physical cores, 11 logical processors, using up to 11 threads

Optimize a model with 649 rows, 279 columns and 5309 nonzeros
Model fingerprint: 0xd9629f68
Variable types: 1 continuous, 278 integer (270 binary)
Coefficient statistics:
  Matrix range     [3e-05, 2e+02]
  Objective range  [1e+00, 1e+00]
  Bounds range     [1e+00, 1e+00]
  RHS range        [1e+00, 2e+02]

User MIP start produced solution with objective 12 (0.01s)
Loaded user MIP start with objective 12

Presolve removed 258 rows and 131 columns
Presolve time: 0.01s
Presolved: 391 rows, 148 columns, 4175 nonzeros
Variable types: 1 continuous, 147 integer (142 binary)

Root relaxation: objective 0.000000e+00, 10 iterations, 0.00 seconds (0.00 work units)

    Nodes    |    Current Node    |     Objective Bounds      |     Work
 Expl Unexpl |  Obj  Depth IntInf | Incumbent    BestBd   Gap | It/Node Time

     0     0    0.00000    0    7   12.00000    0.00000   100%     -    0s
     0     0    0.00000    0   46   12.00000    0.00000   100%     -    0s
     0     0    0.00000    0   45   12.00000    0.00000   100%     -    0s
     0     0    0.00000    0   81   12.00000    0.00000   100%     -    0s
     0     0    0.00000    0   71   12.00000    0.00000   100%     -    0s
     0     0    1.02637    0    6   12.00000    1.02637  91.4%     -    0s
     0     0    2.00000    0   12   12.00000    2.00000  83.3%     -    0s
     0     0    3.00000    0   17   12.00000    3.00000  75.0%     -    0s
     0     0    3.00545    0   46   12.00000    3.00545  75.0%     -    0s
     0     0    4.38708    0   46   12.00000    4.38708  63.4%     -    0s
     0     0    5.00000    0   47   12.00000    5.00000  58.3%     -    0s
     0     0   12.00000    0   46   12.00000   12.00000  0.00%     -    0s

Cutting planes:
  Cover: 133
  MIR: 120
  StrongCG: 25
  GUB cover: 50
  RLT: 12
  Relax-and-lift: 22

Explored 1 nodes (2577 simplex iterations) in 0.17 seconds (0.18 work units)
Thread count was 11 (of 11 available processors)

Solution count 1: 12 

Optimal solution found (tolerance 1.00e-04)
Best objective 1.200000000000e+01, best bound 1.200000000000e+01, gap 0.0000%

Gurobi 11.0.0 (mac64[arm]) logging started Fri Apr 19 16:16:03 2024

Set parameter LogFile to value "GurobiLogs/biomed_1.txt"
Set parameter TimeLimit to value 3600
Read MIP start from file WarmStarts/biomed_1.mst
Warning for adding constraints: zero or small (< 1e-13) coefficients, ignored
Gurobi Optimizer version 11.0.0 build v11.0.0rc2 (mac64[arm] - Darwin 23.4.0 23E224)

CPU model: Apple M3 Pro
Thread count: 11 physical cores, 11 logical processors, using up to 11 threads

Optimize a model with 649 rows, 279 columns and 5309 nonzeros
Model fingerprint: 0xd9629f68
Variable types: 1 continuous, 278 integer (270 binary)
Coefficient statistics:
  Matrix range     [3e-05, 2e+02]
  Objective range  [1e+00, 1e+00]
  Bounds range     [1e+00, 1e+00]
  RHS range        [1e+00, 2e+02]

User MIP start produced solution with objective 12 (0.00s)
Loaded user MIP start with objective 12

Presolve removed 258 rows and 131 columns
Presolve time: 0.01s
Presolved: 391 rows, 148 columns, 4175 nonzeros
Variable types: 1 continuous, 147 integer (142 binary)

Root relaxation: objective 0.000000e+00, 10 iterations, 0.00 seconds (0.00 work units)

    Nodes    |    Current Node    |     Objective Bounds      |     Work
 Expl Unexpl |  Obj  Depth IntInf | Incumbent    BestBd   Gap | It/Node Time

     0     0    0.00000    0    7   12.00000    0.00000   100%     -    0s
     0     0    0.00000    0   46   12.00000    0.00000   100%     -    0s
     0     0    0.00000    0   45   12.00000    0.00000   100%     -    0s
     0     0    0.00000    0   81   12.00000    0.00000   100%     -    0s
     0     0    0.00000    0   71   12.00000    0.00000   100%     -    0s
     0     0    1.02637    0    6   12.00000    1.02637  91.4%     -    0s
     0     0    2.00000    0   12   12.00000    2.00000  83.3%     -    0s
     0     0    3.00000    0   17   12.00000    3.00000  75.0%     -    0s
     0     0    3.00545    0   46   12.00000    3.00545  75.0%     -    0s
     0     0    4.38708    0   46   12.00000    4.38708  63.4%     -    0s
     0     0    5.00000    0   47   12.00000    5.00000  58.3%     -    0s
     0     0   12.00000    0   46   12.00000   12.00000  0.00%     -    0s

Cutting planes:
  Cover: 133
  MIR: 120
  StrongCG: 25
  GUB cover: 50
  RLT: 12
  Relax-and-lift: 22

Explored 1 nodes (2577 simplex iterations) in 0.18 seconds (0.18 work units)
Thread count was 11 (of 11 available processors)

Solution count 1: 12 

Optimal solution found (tolerance 1.00e-04)
Best objective 1.200000000000e+01, best bound 1.200000000000e+01, gap 0.0000%

Gurobi 11.0.0 (mac64[arm]) logging started Fri Apr 19 16:16:04 2024

Set parameter LogFile to value "GurobiLogs/biomed_1.txt"
Set parameter TimeLimit to value 3600
Read MIP start from file WarmStarts/biomed_1.mst
Warning for adding constraints: zero or small (< 1e-13) coefficients, ignored
Gurobi Optimizer version 11.0.0 build v11.0.0rc2 (mac64[arm] - Darwin 23.4.0 23E224)

CPU model: Apple M3 Pro
Thread count: 11 physical cores, 11 logical processors, using up to 11 threads

Optimize a model with 649 rows, 279 columns and 5309 nonzeros
Model fingerprint: 0xd9629f68
Variable types: 1 continuous, 278 integer (270 binary)
Coefficient statistics:
  Matrix range     [3e-05, 2e+02]
  Objective range  [1e+00, 1e+00]
  Bounds range     [1e+00, 1e+00]
  RHS range        [1e+00, 2e+02]

User MIP start produced solution with objective 12 (0.01s)
Loaded user MIP start with objective 12

Presolve removed 258 rows and 131 columns
Presolve time: 0.01s
Presolved: 391 rows, 148 columns, 4175 nonzeros
Variable types: 1 continuous, 147 integer (142 binary)

Root relaxation: objective 0.000000e+00, 10 iterations, 0.00 seconds (0.00 work units)

    Nodes    |    Current Node    |     Objective Bounds      |     Work
 Expl Unexpl |  Obj  Depth IntInf | Incumbent    BestBd   Gap | It/Node Time

     0     0    0.00000    0    7   12.00000    0.00000   100%     -    0s
     0     0    0.00000    0   46   12.00000    0.00000   100%     -    0s
     0     0    0.00000    0   45   12.00000    0.00000   100%     -    0s
     0     0    0.00000    0   81   12.00000    0.00000   100%     -    0s
     0     0    0.00000    0   71   12.00000    0.00000   100%     -    0s
     0     0    1.02637    0    6   12.00000    1.02637  91.4%     -    0s
     0     0    2.00000    0   12   12.00000    2.00000  83.3%     -    0s
     0     0    3.00000    0   17   12.00000    3.00000  75.0%     -    0s
     0     0    3.00545    0   46   12.00000    3.00545  75.0%     -    0s
     0     0    4.38708    0   46   12.00000    4.38708  63.4%     -    0s
     0     0    5.00000    0   47   12.00000    5.00000  58.3%     -    0s
     0     0   12.00000    0   46   12.00000   12.00000  0.00%     -    0s

Cutting planes:
  Cover: 133
  MIR: 120
  StrongCG: 25
  GUB cover: 50
  RLT: 12
  Relax-and-lift: 22

Explored 1 nodes (2577 simplex iterations) in 0.19 seconds (0.18 work units)
Thread count was 11 (of 11 available processors)

Solution count 1: 12 

Optimal solution found (tolerance 1.00e-04)
Best objective 1.200000000000e+01, best bound 1.200000000000e+01, gap 0.0000%
